certificates/rado_a3_c83_N27.cnf
c Rad2 upper bound instance: x1 + 3*x2 - x3 = 83, interval [1,27]
p cnf 27 234
1 3 27 0
-1 -3 -27 0
2 4 27 0
-2 -4 -27 0
3 5 27 0
-3 -5 -27 0
1 6 26 0
-1 -6 -26 0
4 6 27 0
-4 -6 -27 0
2 7 26 0
-2 -7 -26 0
5 7 27 0
-5 -7 -27 0
3 8 26 0
-3 -8 -26 0
6 8 27 0
-6 -8 -27 0
1 9 25 0
-1 -9 -25 0
4 9 26 0
-4 -9 -26 0
7 9 27 0
-7 -9 -27 0
2 10 25 0
-2 -10 -25 0
5 10 26 0
-5 -10 -26 0
8 10 27 0
-8 -10 -27 0
3 11 25 0
-3 -11 -25 0
6 11 26 0
-6 -11 -26 0
9 11 27 0
-9 -11 -27 0
1 12 24 0
-1 -12 -24 0
4 12 25 0
-4 -12 -25 0
7 12 26 0
-7 -12 -26 0
10 12 27 0
-10 -12 -27 0
2 13 24 0
-2 -13 -24 0
5 13 25 0
-5 -13 -25 0
8 13 26 0
-8 -13 -26 0
11 13 27 0
-11 -13 -27 0
3 14 24 0
-3 -14 -24 0
6 14 25 0
-6 -14 -25 0
9 14 26 0
-9 -14 -26 0
12 14 27 0
-12 -14 -27 0
1 15 23 0
-1 -15 -23 0
4 15 24 0
-4 -15 -24 0
7 15 25 0
-7 -15 -25 0
10 15 26 0
-10 -15 -26 0
13 15 27 0
-13 -15 -27 0
2 16 23 0
-2 -16 -23 0
5 16 24 0
-5 -16 -24 0
8 16 25 0
-8 -16 -25 0
11 16 26 0
-11 -16 -26 0
14 16 27 0
-14 -16 -27 0
3 17 23 0
-3 -17 -23 0
6 17 24 0
-6 -17 -24 0
9 17 25 0
-9 -17 -25 0
12 17 26 0
-12 -17 -26 0
15 17 27 0
-15 -17 -27 0
1 18 22 0
-1 -18 -22 0
4 18 23 0
-4 -18 -23 0
7 18 24 0
-7 -18 -24 0
10 18 25 0
-10 -18 -25 0
13 18 26 0
-13 -18 -26 0
16 18 27 0
-16 -18 -27 0
2 19 22 0
-2 -19 -22 0
5 19 23 0
-5 -19 -23 0
8 19 24 0
-8 -19 -24 0
11 19 25 0
-11 -19 -25 0
14 19 26 0
-14 -19 -26 0
17 19 27 0
-17 -19 -27 0
3 20 22 0
-3 -20 -22 0
6 20 23 0
-6 -20 -23 0
9 20 24 0
-9 -20 -24 0
12 20 25 0
-12 -20 -25 0
15 20 26 0
-15 -20 -26 0
18 20 27 0
-18 -20 -27 0
1 21 0
-1 -21 0
4 21 22 0
-4 -21 -22 0
7 21 23 0
-7 -21 -23 0
10 21 24 0
-10 -21 -24 0
13 21 25 0
-13 -21 -25 0
16 21 26 0
-16 -21 -26 0
19 21 27 0
-19 -21 -27 0
2 21 22 0
-2 -21 -22 0
5 22 0
-5 -22 0
8 22 23 0
-8 -22 -23 0
11 22 24 0
-11 -22 -24 0
14 22 25 0
-14 -22 -25 0
17 22 26 0
-17 -22 -26 0
20 22 27 0
-20 -22 -27 0
3 21 23 0
-3 -21 -23 0
6 22 23 0
-6 -22 -23 0
9 23 0
-9 -23 0
12 23 24 0
-12 -23 -24 0
15 23 25 0
-15 -23 -25 0
18 23 26 0
-18 -23 -26 0
21 23 27 0
-21 -23 -27 0
1 20 24 0
-1 -20 -24 0
4 21 24 0
-4 -21 -24 0
7 22 24 0
-7 -22 -24 0
10 23 24 0
-10 -23 -24 0
13 24 0
-13 -24 0
16 24 25 0
-16 -24 -25 0
19 24 26 0
-19 -24 -26 0
22 24 27 0
-22 -24 -27 0
2 20 25 0
-2 -20 -25 0
5 21 25 0
-5 -21 -25 0
8 22 25 0
-8 -22 -25 0
11 23 25 0
-11 -23 -25 0
14 24 25 0
-14 -24 -25 0
17 25 0
-17 -25 0
20 25 26 0
-20 -25 -26 0
23 25 27 0
-23 -25 -27 0
3 20 26 0
-3 -20 -26 0
6 21 26 0
-6 -21 -26 0
9 22 26 0
-9 -22 -26 0
12 23 26 0
-12 -23 -26 0
15 24 26 0
-15 -24 -26 0
18 25 26 0
-18 -25 -26 0
21 26 0
-21 -26 0
24 26 27 0
-24 -26 -27 0
1 19 27 0
-1 -19 -27 0
4 20 27 0
-4 -20 -27 0
7 21 27 0
-7 -21 -27 0
10 22 27 0
-10 -22 -27 0
13 23 27 0
-13 -23 -27 0
16 24 27 0
-16 -24 -27 0
19 25 27 0
-19 -25 -27 0
22 26 27 0
-22 -26 -27 0
25 27 0
-25 -27 0
