certificates/rado_a3_c83_N27.drat
-27 0
25 0
-17 0
15 0
19 0
-7 0
-23 0
-11 0
21 0
5 0
9 0
13 0
3 0
-1 0
-26 0
0
